p cnf 58 118
-10 -2 0
10 0
-11 -2 0
11 0
-12 -1 0
-12 -2 0
12 0
-13 -1 0
-13 3 0
-14 1 0
-14 -3 0
13 14 0
-15 3 0
15 0
-16 3 0
16 0
-17 -2 0
17 0
-18 -1 0
-18 -2 0
18 0
-19 -1 0
19 0
-20 -1 0
-20 3 0
-21 1 0
-21 -3 0
20 21 0
-22 3 0
22 0
-23 -2 0
-23 -4 0
23 0
-24 -2 0
-24 -4 0
24 0
-25 -2 0
-25 5 0
-26 2 0
-26 -5 0
25 26 0
-27 5 0
27 0
-28 3 0
-28 5 0
28 0
-29 -3 0
-29 6 0
-30 3 0
-30 -6 0
29 30 0
-31 -3 0
-31 6 0
-32 3 0
-32 -6 0
31 32 0
-33 -4 0
33 0
-34 5 0
34 0
-35 5 0
35 0
-36 -6 0
36 0
-37 -4 0
-37 7 0
-38 4 0
-38 -7 0
37 38 0
-39 -4 0
-39 7 0
-40 4 0
-40 -7 0
39 40 0
-41 5 0
-41 7 0
41 0
-42 5 0
42 0
-43 5 0
-43 8 0
43 0
-44 -6 0
-44 8 0
-45 6 0
-45 -8 0
44 45 0
-46 -6 0
-46 8 0
-47 6 0
-47 -8 0
46 47 0
-48 7 0
48 0
-49 7 0
-49 9 0
49 0
-50 9 0
50 0
-51 8 0
-51 9 0
51 0
-52 8 0
52 0
-53 7 0
53 0
-54 7 0
54 0
-55 7 0
-55 9 0
55 0
-56 8 0
-56 9 0
56 0
-57 8 0
57 0
-58 8 0
58 0
